c Reduced graph for GEOM60_3 generated by Cyril Grelier
p edge 47 146
v 1 10
v 2 10
v 3 10
v 4 10
v 5 10
v 6 10
v 7 10
v 8 9
v 9 9
v 10 9
v 11 9
v 12 9
v 13 8
v 14 8
v 15 8
v 16 8
v 17 7
v 18 7
v 19 7
v 20 7
v 21 6
v 22 6
v 23 6
v 24 6
v 25 5
v 26 5
v 27 5
v 28 5
v 29 5
v 30 5
v 31 5
v 32 4
v 33 4
v 34 3
v 35 3
v 36 2
v 37 2
v 38 2
v 39 2
v 40 2
v 41 2
v 42 1
v 43 1
v 44 1
v 45 1
v 46 1
v 47 1
e 1 2
e 1 3
e 1 8
e 1 9
e 1 25
e 1 34
e 1 37
e 1 42
e 1 45
e 2 3
e 2 7
e 2 25
e 2 28
e 2 44
e 2 45
e 3 8
e 3 34
e 3 36
e 3 42
e 4 11
e 4 22
e 4 23
e 4 30
e 4 33
e 4 39
e 5 14
e 5 17
e 5 18
e 5 32
e 5 46
e 6 13
e 6 15
e 6 26
e 6 36
e 6 43
e 7 18
e 7 28
e 7 45
e 8 9
e 8 34
e 8 36
e 8 37
e 8 41
e 8 42
e 8 43
e 8 47
e 9 25
e 9 34
e 9 36
e 9 37
e 9 41
e 9 42
e 9 47
e 10 19
e 10 20
e 10 24
e 10 25
e 10 29
e 10 35
e 10 38
e 10 44
e 11 22
e 11 30
e 11 33
e 11 39
e 12 13
e 12 15
e 12 21
e 12 27
e 13 15
e 13 21
e 13 26
e 13 27
e 13 36
e 13 43
e 14 17
e 14 23
e 14 32
e 14 40
e 14 46
e 15 21
e 15 26
e 16 17
e 16 18
e 16 31
e 16 40
e 17 18
e 17 31
e 17 32
e 17 40
e 17 46
e 18 28
e 18 31
e 18 32
e 19 20
e 19 29
e 19 35
e 19 38
e 19 44
e 20 29
e 20 35
e 20 38
e 21 26
e 21 27
e 21 43
e 21 47
e 22 23
e 22 30
e 22 33
e 22 39
e 23 32
e 23 46
e 24 25
e 24 44
e 24 45
e 25 34
e 25 44
e 25 45
e 26 36
e 26 43
e 27 41
e 27 43
e 27 47
e 28 44
e 28 45
e 29 35
e 29 38
e 30 33
e 30 39
e 31 40
e 32 46
e 33 39
e 34 36
e 34 37
e 34 42
e 35 38
e 36 42
e 36 43
e 37 41
e 37 42
e 37 47
e 38 44
e 40 46
e 41 47
e 42 43
e 44 45
